 # Ga2O3

lattice_vector       12.2139997482         0.0000000000         0.0000000000
lattice_vector        0.0000000000         3.0369999409         0.0000000000
lattice_vector       -1.3859651379         0.0000000000         5.6299114558


atom_frac     0.090499997         0.000000000         0.794600010 Ga
atom_frac     0.909500003         0.000000000         0.205399990 Ga
atom_frac     0.590499997         0.500000000         0.794600010 Ga
atom_frac     0.409500003         0.500000000         0.205399990 Ga
atom_frac     0.158659995         0.500000000         0.314020008 Ga
atom_frac     0.841340005         0.500000000         0.685979962 Ga
atom_frac     0.658659995         0.000000000         0.314020008 Ga
atom_frac     0.341340005         0.000000000         0.685979962 Ga
atom_frac     0.164499998         0.000000000         0.109800003 O
atom_frac     0.835500002         0.000000000         0.890200019 O
atom_frac     0.664499998         0.500000000         0.109800003 O
atom_frac     0.335500002         0.500000000         0.890200019 O
atom_frac     0.173299998         0.000000000         0.563199997 O
atom_frac     0.826699972         0.000000000         0.436800003 O
atom_frac     0.673300028         0.500000000         0.563199997 O
atom_frac     0.326700002         0.500000000         0.436800003 O
atom_frac     0.995899975         0.500000000         0.256599993 O
atom_frac     0.004100025         0.500000000         0.743399978 O
atom_frac     0.495899916         0.000000000         0.256599993 O
atom_frac     0.504100025         0.000000000         0.743399978 O
 